p cnf 51 35
-1 36 -9 -39 -40 -41 -42 -44 -49 -50 0 
-1 37 -35 -39 -40 -41 -42 -44 -49 -50 0 
-2 37 -35 -39 -40 -41 -42 -44 -49 -50 0 
-3 36 -9 -39 -40 -41 -42 -44 -49 -50 0 
-4 38 -43 -47 -48 -51 0 
-5 38 -43 -47 -48 -51 0 
-6 39 -40 -41 -42 -44 -49 -50 0 
-7 40 -39 -41 -42 -44 -49 -50 0 
-8 10 41 -39 -40 -42 -44 -49 -50 0 
-9 42 -39 -40 -41 -44 -49 -50 0 
-10 8 36 -9 -39 -40 -41 -42 -44 -49 -50 0 
-11 29 39 -40 -41 -42 -44 -49 -50 0 
-12 27 39 -40 -41 -42 -44 -49 -50 0 
-13 39 -40 -41 -42 -44 -49 -50 0 
-14 43 -38 -47 -48 -51 0 
-15 39 -40 -41 -42 -44 -49 -50 0 
-16 39 -40 -41 -42 -44 -49 -50 0 
-17 39 -40 -41 -42 -44 -49 -50 0 
-18 39 -40 -41 -42 -44 -49 -50 0 
-19 44 -39 -40 -41 -42 -49 -50 0 
-5 -1 -20 -21 40 -39 -41 -42 -44 -49 -50 0 
-22 45 -39 -40 -41 -42 -44 -49 -50 -8 -10 0 
-23 46 -39 -40 -41 -42 -44 -49 -50 0 
-24 45 -39 -40 -41 -42 -44 -49 -50 -8 -10 0 
-25 32 46 -39 -40 -41 -42 -44 -49 -50 0 
-26 39 -40 -41 -42 -44 -49 -50 0 
-27 12 47 -38 -43 -48 -51 0 
-12 27 48 -38 -43 -47 -51 0 
-28 39 -40 -41 -42 -44 -49 -50 0 
-29 11 36 -9 -39 -40 -41 -42 -44 -49 -50 0 
-30 49 -39 -40 -41 -42 -44 -50 0 
-31 50 -39 -40 -41 -42 -44 -49 0 
-32 25 47 -38 -43 -48 -51 0 
-33 -34 -20 51 -38 -43 -47 -48 0 
-35 -1 39 -40 -41 -42 -44 -49 -50 0 
